NAME : X-n548-80-k40
COMMENT : "Generated by Queiroga, Frota, Sadykov, Subramanian, Uchoa and Vidal (2019)" 
TYPE : CVRP
DIMENSION : 548
EDGE_WEIGHT_TYPE : EUC_2D
CAPACITY : 11
NODE_COORD_SECTION
1 -1 0 0
2 0 221 542
3 0 320 456
4 0 576 827
5 0 679 994
6 0 371 461
7 0 961 844
8 0 986 379
9 0 175 540
10 0 126 517
11 0 329 626
12 0 477 890
13 0 191 356
14 0 584 917
15 0 308 653
16 0 0 7
17 0 273 302
18 0 672 381
19 0 235 415
20 0 583 149
21 0 672 124
22 0 644 646
23 0 400 544
24 0 832 999
25 0 842 964
26 0 582 965
27 0 544 311
28 0 429 2
29 0 939 849
30 0 898 605
31 0 363 130
32 0 639 874
33 0 323 201
34 0 829 350
35 0 7 53
36 0 801 92
37 0 57 330
38 0 943 0
39 0 579 275
40 0 833 402
41 0 408 940
42 0 635 871
43 0 631 630
44 0 733 313
45 0 344 619
46 0 628 291
47 0 674 92
48 0 74 602
49 0 38 354
50 0 473 107
51 0 668 279
52 0 510 811
53 0 366 16
54 0 49 182
55 0 528 946
56 0 271 745
57 0 405 872
58 0 65 893
59 0 622 488
60 0 668 978
61 0 939 73
62 0 556 632
63 0 270 446
64 0 586 348
65 0 951 167
66 0 385 308
67 0 247 997
68 0 992 460
69 0 128 590
70 0 746 847
71 0 279 459
72 0 428 183
73 0 364 167
74 0 656 687
75 0 547 792
76 0 517 152
77 0 252 618
78 0 464 284
79 0 184 96
80 0 457 269
81 0 590 47
82 0 348 609
83 0 777 112
84 0 528 198
85 0 877 457
86 0 812 650
87 0 864 723
88 0 584 875
89 0 817 233
90 0 186 909
91 0 439 447
92 0 560 994
93 0 818 658
94 0 134 903
95 0 447 951
96 0 969 519
97 0 488 401
98 0 142 666
99 0 287 534
100 0 399 181
101 0 141 22
102 0 29 248
103 0 313 643
104 0 20 974
105 0 294 475
106 0 439 214
107 0 327 361
108 0 79 657
109 0 165 601
110 0 345 144
111 0 90 914
112 0 400 256
113 0 177 633
114 0 549 135
115 0 812 166
116 0 887 565
117 0 455 695
118 0 180 298
119 0 658 126
120 0 18 638
121 0 327 299
122 0 195 261
123 0 245 439
124 0 355 299
125 0 827 854
126 0 881 666
127 0 144 893
128 0 34 637
129 0 187 150
130 0 350 673
131 0 380 917
132 0 271 505
133 0 347 879
134 0 45 456
135 0 930 78
136 0 860 22
137 0 448 112
138 0 236 704
139 0 222 587
140 0 670 76
141 0 333 821
142 0 521 123
143 0 642 795
144 0 152 816
145 0 50 360
146 0 325 936
147 0 24 690
148 0 836 158
149 0 351 981
150 0 405 377
151 0 159 405
152 0 825 285
153 0 187 320
154 0 342 200
155 0 290 713
156 0 304 144
157 0 216 909
158 0 46 173
159 0 613 524
160 0 35 950
161 0 298 667
162 0 257 579
163 0 775 393
164 0 860 681
165 0 996 407
166 0 42 719
167 0 379 14
168 0 195 581
169 0 75 328
170 0 295 405
171 0 481 721
172 0 539 661
173 0 6 525
174 0 239 471
175 0 88 989
176 0 965 196
177 0 460 479
178 0 927 260
179 0 663 933
180 0 626 229
181 0 814 564
182 0 737 136
183 0 620 811
184 0 253 65
185 0 645 544
186 0 877 977
187 0 825 518
188 0 656 780
189 0 235 74
190 0 881 673
191 0 101 93
192 0 221 710
193 0 69 200
194 0 115 635
195 0 721 215
196 0 414 959
197 0 336 858
198 0 270 287
199 0 912 701
200 0 278 898
201 0 426 373
202 0 867 569
203 0 354 11
204 0 937 660
205 0 434 965
206 0 753 436
207 0 681 746
208 0 86 648
209 0 656 239
210 0 604 359
211 0 979 146
212 0 507 27
213 0 94 695
214 0 424 827
215 0 287 592
216 0 554 230
217 0 952 222
218 0 48 840
219 0 99 106
220 0 661 456
221 0 133 601
222 0 635 416
223 0 860 852
224 0 842 165
225 0 752 0
226 0 173 90
227 0 469 632
228 0 184 590
229 0 619 482
230 0 981 411
231 0 778 389
232 0 359 222
233 0 751 498
234 0 201 444
235 0 91 710
236 0 111 324
237 0 867 389
238 0 309 269
239 0 669 317
240 0 768 421
241 0 889 891
242 0 605 483
243 0 221 579
244 0 729 804
245 0 442 624
246 0 719 697
247 0 413 1000
248 0 977 29
249 0 356 605
250 0 107 39
251 0 362 727
252 0 570 421
253 0 162 737
254 0 557 652
255 0 139 48
256 0 145 568
257 0 596 316
258 0 681 194
259 0 268 893
260 0 420 824
261 0 94 529
262 0 422 341
263 0 226 328
264 0 687 807
265 0 299 951
266 0 549 281
267 0 944 64
268 0 316 904
269 0 554 49
270 0 160 221
271 0 302 952
272 0 258 765
273 0 406 684
274 0 182 881
275 0 641 481
276 0 541 807
277 0 107 602
278 0 870 999
279 0 247 282
280 0 771 712
281 0 109 942
282 0 305 827
283 0 865 629
284 0 632 928
285 0 571 734
286 0 899 632
287 0 189 934
288 0 385 166
289 0 851 399
290 0 890 198
291 0 370 248
292 0 372 910
293 0 11 248
294 0 845 326
295 0 508 769
296 0 511 900
297 0 320 984
298 0 158 330
299 0 159 327
300 0 798 648
301 0 746 195
302 0 555 541
303 0 832 900
304 0 809 931
305 0 460 869
306 0 585 804
307 0 487 102
308 0 194 288
309 0 340 877
310 0 127 981
311 0 39 692
312 0 187 528
313 0 462 482
314 0 890 450
315 0 857 64
316 0 96 223
317 0 610 842
318 0 910 604
319 0 260 757
320 0 809 211
321 0 767 499
322 0 48 352
323 0 23 950
324 0 289 98
325 0 622 891
326 0 499 618
327 0 873 960
328 0 82 752
329 0 65 845
330 0 281 842
331 0 990 747
332 0 809 808
333 0 693 76
334 0 744 478
335 0 506 411
336 0 668 167
337 0 301 696
338 0 61 500
339 0 9 695
340 0 939 496
341 0 390 699
342 0 741 894
343 0 39 477
344 0 476 728
345 0 663 477
346 0 112 160
347 0 588 281
348 0 215 559
349 0 528 309
350 0 839 820
351 0 601 769
352 0 668 953
353 0 594 865
354 0 407 905
355 0 478 244
356 0 423 639
357 0 174 707
358 0 635 465
359 0 570 151
360 0 651 612
361 0 785 786
362 0 166 64
363 0 684 574
364 0 598 632
365 0 645 944
366 0 976 284
367 0 576 737
368 0 87 725
369 0 177 414
370 0 865 221
371 0 459 506
372 0 23 683
373 0 507 320
374 0 961 987
375 0 497 889
376 0 888 561
377 0 963 175
378 0 223 208
379 0 308 530
380 0 237 184
381 0 576 387
382 0 937 529
383 0 463 219
384 0 210 641
385 0 582 748
386 0 215 107
387 0 985 385
388 0 22 783
389 0 920 945
390 0 502 117
391 0 851 594
392 0 467 732
393 0 728 54
394 0 64 249
395 0 492 57
396 0 415 372
397 0 852 45
398 0 503 209
399 0 292 125
400 0 316 855
401 0 340 273
402 0 242 217
403 0 85 788
404 0 700 96
405 0 942 989
406 0 37 511
407 0 663 175
408 0 670 279
409 0 611 829
410 0 471 843
411 0 268 61
412 0 412 350
413 0 4 325
414 0 454 981
415 0 94 359
416 0 688 524
417 0 982 397
418 0 725 208
419 0 793 620
420 0 337 779
421 0 106 856
422 0 350 826
423 0 965 538
424 0 780 360
425 0 144 904
426 0 225 646
427 0 666 449
428 0 510 276
429 0 564 632
430 0 573 501
431 0 903 827
432 0 605 806
433 0 38 525
434 0 445 738
435 0 138 788
436 0 216 988
437 0 944 955
438 0 220 716
439 0 788 589
440 1 75 130
441 1 858 686
442 1 107 314
443 1 717 125
444 1 991 306
445 1 62 373
446 1 641 426
447 1 747 436
448 1 350 855
449 1 42 62
450 1 184 460
451 1 153 199
452 1 618 878
453 1 986 690
454 1 430 839
455 1 161 233
456 1 840 747
457 1 284 582
458 1 899 505
459 1 453 998
460 1 134 596
461 1 30 955
462 1 437 412
463 1 660 92
464 1 203 828
465 1 524 418
466 1 723 31
467 1 869 759
468 1 824 606
469 1 764 469
470 1 760 852
471 1 119 378
472 1 352 365
473 1 954 998
474 1 381 873
475 1 905 972
476 1 222 302
477 1 0 783
478 1 746 114
479 1 670 702
480 1 447 881
481 1 14 996
482 1 844 110
483 1 315 373
484 1 115 329
485 1 808 697
486 1 992 409
487 1 692 929
488 1 897 142
489 1 397 338
490 1 334 75
491 1 104 954
492 1 537 581
493 1 502 262
494 1 346 190
495 1 812 171
496 1 361 170
497 1 44 202
498 1 326 351
499 1 525 950
500 1 773 202
501 1 650 781
502 1 906 167
503 1 910 793
504 1 752 234
505 1 147 12
506 1 542 768
507 1 82 850
508 1 358 588
509 1 68 802
510 1 19 296
511 1 114 406
512 1 228 854
513 1 147 444
514 1 954 410
515 1 529 392
516 1 77 383
517 1 822 126
518 1 284 784
519 1 804 876
520 1 200 797
521 1 735 425
522 1 784 608
523 1 870 566
524 1 968 481
525 1 228 806
526 1 548 87
527 1 609 314
528 1 328 85
529 1 852 128
530 1 505 944
531 1 358 609
532 1 311 26
533 1 855 140
534 1 909 915
535 1 407 84
536 1 523 987
537 1 690 982
538 1 841 250
539 1 499 9
540 1 646 414
541 1 516 682
542 1 713 221
543 1 328 800
544 1 944 22
545 1 691 660
546 1 763 609
547 1 44 506
548 1 756 289
DEMAND_SECTION
1 0
2 1
3 1
4 1
5 1
6 1
7 1
8 1
9 1
10 1
11 1
12 1
13 1
14 1
15 1
16 1
17 1
18 1
19 1
20 1
21 1
22 1
23 1
24 1
25 1
26 1
27 1
28 1
29 1
30 1
31 1
32 1
33 1
34 1
35 1
36 1
37 1
38 1
39 1
40 1
41 1
42 1
43 1
44 1
45 1
46 1
47 1
48 1
49 1
50 1
51 1
52 1
53 1
54 1
55 1
56 1
57 1
58 1
59 1
60 1
61 1
62 1
63 1
64 1
65 1
66 1
67 1
68 1
69 1
70 1
71 1
72 1
73 1
74 1
75 1
76 1
77 1
78 1
79 1
80 1
81 1
82 1
83 1
84 1
85 1
86 1
87 1
88 1
89 1
90 1
91 1
92 1
93 1
94 1
95 1
96 1
97 1
98 1
99 1
100 1
101 1
102 1
103 1
104 1
105 1
106 1
107 1
108 1
109 1
110 1
111 1
112 1
113 1
114 1
115 1
116 1
117 1
118 1
119 1
120 1
121 1
122 1
123 1
124 1
125 1
126 1
127 1
128 1
129 1
130 1
131 1
132 1
133 1
134 1
135 1
136 1
137 1
138 1
139 1
140 1
141 1
142 1
143 1
144 1
145 1
146 1
147 1
148 1
149 1
150 1
151 1
152 1
153 1
154 1
155 1
156 1
157 1
158 1
159 1
160 1
161 1
162 1
163 1
164 1
165 1
166 1
167 1
168 1
169 1
170 1
171 1
172 1
173 1
174 1
175 1
176 1
177 1
178 1
179 1
180 1
181 1
182 1
183 1
184 1
185 1
186 1
187 1
188 1
189 1
190 1
191 1
192 1
193 1
194 1
195 1
196 1
197 1
198 1
199 1
200 1
201 1
202 1
203 1
204 1
205 1
206 1
207 1
208 1
209 1
210 1
211 1
212 1
213 1
214 1
215 1
216 1
217 1
218 1
219 1
220 1
221 1
222 1
223 1
224 1
225 1
226 1
227 1
228 1
229 1
230 1
231 1
232 1
233 1
234 1
235 1
236 1
237 1
238 1
239 1
240 1
241 1
242 1
243 1
244 1
245 1
246 1
247 1
248 1
249 1
250 1
251 1
252 1
253 1
254 1
255 1
256 1
257 1
258 1
259 1
260 1
261 1
262 1
263 1
264 1
265 1
266 1
267 1
268 1
269 1
270 1
271 1
272 1
273 1
274 1
275 1
276 1
277 1
278 1
279 1
280 1
281 1
282 1
283 1
284 1
285 1
286 1
287 1
288 1
289 1
290 1
291 1
292 1
293 1
294 1
295 1
296 1
297 1
298 1
299 1
300 1
301 1
302 1
303 1
304 1
305 1
306 1
307 1
308 1
309 1
310 1
311 1
312 1
313 1
314 1
315 1
316 1
317 1
318 1
319 1
320 1
321 1
322 1
323 1
324 1
325 1
326 1
327 1
328 1
329 1
330 1
331 1
332 1
333 1
334 1
335 1
336 1
337 1
338 1
339 1
340 1
341 1
342 1
343 1
344 1
345 1
346 1
347 1
348 1
349 1
350 1
351 1
352 1
353 1
354 1
355 1
356 1
357 1
358 1
359 1
360 1
361 1
362 1
363 1
364 1
365 1
366 1
367 1
368 1
369 1
370 1
371 1
372 1
373 1
374 1
375 1
376 1
377 1
378 1
379 1
380 1
381 1
382 1
383 1
384 1
385 1
386 1
387 1
388 1
389 1
390 1
391 1
392 1
393 1
394 1
395 1
396 1
397 1
398 1
399 1
400 1
401 1
402 1
403 1
404 1
405 1
406 1
407 1
408 1
409 1
410 1
411 1
412 1
413 1
414 1
415 1
416 1
417 1
418 1
419 1
420 1
421 1
422 1
423 1
424 1
425 1
426 1
427 1
428 1
429 1
430 1
431 1
432 1
433 1
434 1
435 1
436 1
437 1
438 1
439 1
440 1
441 1
442 1
443 1
444 1
445 1
446 1
447 1
448 1
449 1
450 1
451 1
452 1
453 1
454 1
455 1
456 1
457 1
458 1
459 1
460 1
461 1
462 1
463 1
464 1
465 1
466 1
467 1
468 1
469 1
470 1
471 1
472 1
473 1
474 1
475 1
476 1
477 1
478 1
479 1
480 1
481 1
482 1
483 1
484 1
485 1
486 1
487 1
488 1
489 1
490 1
491 1
492 1
493 1
494 1
495 1
496 1
497 1
498 1
499 1
500 1
501 1
502 1
503 1
504 1
505 1
506 1
507 1
508 1
509 1
510 1
511 1
512 1
513 1
514 1
515 1
516 1
517 1
518 1
519 1
520 1
521 1
522 1
523 1
524 1
525 1
526 1
527 1
528 1
529 1
530 1
531 1
532 1
533 1
534 1
535 1
536 1
537 1
538 1
539 1
540 1
541 1
542 1
543 1
544 1
545 1
546 1
547 1
548 1
DEPOT_SECTION
1
-1
EOF
